datasets/2-dimensional/CL_02_25_04.vbp
2
1000 1000 
25
851 57 30
736 126 72
294 145 4
414 671 88
319 592 54
563 132 64
36 843 90
959 618 26
889 676 94
715 575 28
658 202 72
275 780 49
453 864 54
416 344 19
718 442 28
250 712 61
232 45 84
221 661 23
105 118 67
106 304 53
780 440 54
18 83 16
39 121 9
399 776 54
988 605 77
