datasets/2-dimensional-benchmark/CL_02_25_04.txt
1000 1000 
0 30 851 57 
1 72 736 126 
2 4 294 145 
3 88 414 671 
4 54 319 592 
5 64 563 132 
6 90 36 843 
7 26 959 618 
8 94 889 676 
9 28 715 575 
10 72 658 202 
11 49 275 780 
12 54 453 864 
13 19 416 344 
14 28 718 442 
15 61 250 712 
16 84 232 45 
17 23 221 661 
18 67 105 118 
19 53 106 304 
20 54 780 440 
21 16 18 83 
22 9 39 121 
23 54 399 776 
24 77 988 605 
